(set-logic QF_S)
(declare-fun var0 () Int)
(declare-fun var1 () Int)
(declare-fun var2 () String)
(declare-fun var3 () String)
(declare-fun var4 () String)
(declare-fun var5 () Int)
(declare-fun var6 () Int)
(declare-fun var7 () String)
(assert (> var0 var1))
(assert (>= (str.to.int var2) (str.len var3)))
(assert (<= (str.to.int (str.substr var4 var5 var6)) (str.len var7)))
(assert (> var6 var1))
(check-sat)